Traveling Salesman Problem/TSP_generados/Aleatorio1621103359_11.tsp
NAME: Aleatorio1621103359_11.tsp
COMMENT: Randomly generated scenario
TYPE: TSP
DIMENSION: 11
EDGE_WEIGHT_TYPE: ATT
NODE_COORD_SECTION
1 10.15 18.09
2 40.51 27.51
3 44.93 16.18
4 46.58 37.78
5 3.19 21.65
6 45.18 26.1
7 9.12 19.23
8 9.19 21.91
9 25.71 23.68
10 12.04 32.61
11 4.95 31.18
