Traveling Salesman Problem/TSP_generados/Aleatorio1621103359_11.opt.tour
NAME: Aleatorio1621103359_11.opt.tour
COMMENT: Optimal solution for Aleatorio1621103359_11 (125.9678615217448)
TYPE: TOUR
DIMENSION: 11
TOUR_SECTION
1 9 3 6 2 4 10 11 5 8 7
-1
EOF
